p cnf 29 19
-1 18 26 0 
-2 25 -3 8 11 12 14 19 27 0 
-4 7 24 27 0 
-5 27 0 
-6 28 0 
-7 4 24 26 0 
-8 3 11 12 14 19 26 0 
-9 27 0 
-10 -11 3 8 12 14 19 27 0 
-10 -12 3 8 11 14 19 27 0 
-13 27 0 
-14 3 8 11 12 19 29 0 
-15 -16 -17 27 0 
-18 1 -19 3 8 11 12 14 29 0 
-17 27 0 
-9 -20 -21 -10 -16 27 0 
-22 -23 -17 27 0 
-24 4 7 27 0 
-25 2 26 0 
